# Instance created by Brandimarte (1993)
100 80 5
0 1
1 2
2 3
3 4
5 6
6 7
7 8
8 9
10 11
11 12
12 13
13 14
15 16
16 17
17 18
18 19
20 21
21 22
22 23
23 24
25 26
26 27
27 28
28 29
30 31
31 32
32 33
33 34
35 36
36 37
37 38
38 39
40 41
41 42
42 43
43 44
45 46
46 47
47 48
48 49
50 51
51 52
52 53
53 54
55 56
56 57
57 58
58 59
60 61
61 62
62 63
63 64
65 66
66 67
67 68
68 69
70 71
71 72
72 73
73 74
75 76
76 77
77 78
78 79
80 81
81 82
82 83
83 84
85 86
86 87
87 88
88 89
90 91
91 92
92 93
93 94
95 96
96 97
97 98
98 99
2 1 4 0 15
2 2 18 0 15
1 1 4
1 3 18
5 2 8 4 2 3 5 0 7 1 7
2 0 3 4 13
5 2 8 4 2 3 5 0 7 1 7
2 1 4 0 15
3 0 8 4 1 1 5
3 0 3 4 13 2 2
5 1 18 4 1 3 19 0 9 2 3
1 3 18
2 3 11 2 9
1 1 4
3 4 12 2 14 3 19
2 1 4 0 15
4 3 10 2 10 1 17 4 8
4 4 18 2 13 1 2 0 5
5 3 10 4 15 0 2 2 9 1 16
2 2 15 0 6
3 0 3 4 13 2 2
2 2 18 0 15
5 1 18 4 1 3 19 0 9 2 3
3 4 12 2 14 3 19
1 3 5
5 2 8 4 2 3 5 0 7 1 7
2 2 18 0 15
2 0 15 4 7
2 1 7 0 17
2 1 4 0 15
1 3 5
2 0 15 4 7
2 1 4 0 15
3 0 3 4 13 2 2
4 3 6 1 17 2 15 4 7
4 3 6 1 17 2 15 4 7
3 2 18 0 2 3 15
4 1 14 3 14 2 19 4 15
1 1 4
2 1 7 0 17
5 1 18 4 1 3 19 0 9 2 3
4 3 6 1 17 2 15 4 7
3 0 8 4 1 1 5
4 1 14 3 14 2 19 4 15
2 0 17 4 15
2 0 15 4 7
4 3 10 2 10 1 17 4 8
2 2 15 0 6
1 3 5
5 2 16 4 17 3 10 1 10 0 7
1 3 18
3 0 8 4 1 1 5
5 2 8 4 2 3 5 0 7 1 7
2 0 15 4 7
2 0 17 4 15
3 4 12 2 14 3 19
4 3 10 2 10 1 17 4 8
2 2 15 0 6
5 2 8 4 2 3 5 0 7 1 7
5 2 16 4 17 3 10 1 10 0 7
2 0 17 4 15
1 3 18
4 1 17 4 19 3 5 2 12
3 2 18 0 2 3 15
3 0 8 4 1 1 5
2 4 1 2 5
3 2 18 0 2 3 15
4 3 10 2 10 1 17 4 8
2 2 18 0 15
5 2 8 4 2 3 5 0 7 1 7
5 2 8 4 2 3 5 0 7 1 7
2 4 1 2 5
3 4 12 2 14 3 19
5 2 16 4 17 3 10 1 10 0 7
2 0 17 4 15
5 3 10 4 15 0 2 2 9 1 16
2 3 11 2 9
1 1 4
2 0 15 4 7
1 3 5
5 2 8 4 2 3 5 0 7 1 7
4 1 14 3 14 2 19 4 15
3 2 18 0 2 3 15
2 2 15 0 6
5 1 18 4 1 3 19 0 9 2 3
1 1 4
3 0 8 4 1 1 5
2 4 1 2 5
2 2 18 0 15
2 0 15 4 7
3 0 3 4 13 2 2
4 3 6 1 17 2 15 4 7
4 4 18 2 13 1 2 0 5
1 3 18
2 0 3 4 13
1 3 5
2 1 4 0 15
1 3 18
2 0 15 4 7
5 3 10 4 15 0 2 2 9 1 16
